experiment/data/hgs-res/Vrp-Set-A-n39/Vrp-Set-A-n39-hgs/0.hgs1.vrp
NAME : 0
COMMENT : CVRP Instance
TYPE : CVRP
DIMENSION : 39
EDGE_WEIGHT_TYPE : EUC_2D
CAPACITY : 100
NODE_COORD_SECTION
1	9.0	35.0
2	43.0	19.0
3	79.0	35.0
4	93.0	7.0
5	13.0	35.0
6	67.0	13.0
7	31.0	77.0
8	81.0	7.0
9	27.0	49.0
10	27.0	35.0
11	69.0	23.0
12	31.0	51.0
13	27.0	27.0
14	15.0	83.0
15	7.0	35.0
16	53.0	25.0
17	75.0	13.0
18	47.0	49.0
19	25.0	33.0
20	1.0	23.0
21	45.0	11.0
22	1.0	47.0
23	93.0	15.0
24	41.0	9.0
25	75.0	55.0
26	3.0	1.0
27	51.0	67.0
28	57.0	91.0
29	21.0	97.0
30	55.0	13.0
31	3.0	71.0
32	37.0	19.0
33	73.0	21.0
34	19.0	19.0
35	75.0	73.0
36	93.0	49.0
37	41.0	87.0
38	97.0	73.0
39	45.0	29.0
DEMAND_SECTION
1	0
2	5
3	24
4	3
5	20
6	26
7	23
8	15
9	3
10	20
11	16
12	9
13	21
14	3
15	24
16	14
17	6
18	6
19	13
20	5
21	3
22	3
23	20
24	16
25	22
26	10
27	12
28	20
29	24
30	6
31	1
32	2
33	13
34	7
35	6
36	24
37	19
38	4
39	7
DEPOT_SECTION
1
-1
EOF
