experiment/data/hgs-res/Vrp-Set-A-n39/Vrp-Set-A-n39-hgs/0.hgs1.log
=========== Algorithm Parameters =================
---- nbGranular        is set to 20
---- mu                is set to 25
---- lambda            is set to 40
---- nbElite           is set to 4
---- nbClose           is set to 5
---- targetFeasible    is set to 0.2
---- seed              is set to 1234
---- nbIter            is set to 20000
---- timeLimit         is set to 0
---- useSwapStar       is set to 1
==================================================
----- READING INSTANCE: baseline_results/cvrp_hgs/Vrp-Set-A-n39/Vrp-Set-A-n39-hgs/0.hgs1.vrp
----- FLEET SIZE WAS NOT SPECIFIED: DEFAULT INITIALIZATION TO 10 VEHICLES
----- INSTANCE SUCCESSFULLY LOADED WITH 38 CLIENTS AND 10 VEHICLES
----- BUILDING INITIAL POPULATION
----- STARTING GENETIC ALGORITHM
It      0      2 | T(s) 0.04 | Feas 50 828.99 832.51 | Inf 21 834.27 853.81 | Div 0.28 0.46 | Feas 0.79 1.00 | Pen 3.87 0.85
It    500    502 | T(s) 0.20 | Feas 40 828.99 831.39 | Inf 32 821.43 828.54 | Div 0.27 0.38 | Feas 0.29 1.00 | Pen 1.72 0.38
It   1000   1002 | T(s) 0.35 | Feas 58 828.99 830.93 | Inf 43 820.59 825.73 | Div 0.25 0.31 | Feas 0.14 1.00 | Pen 1.79 0.17
It   1500   1502 | T(s) 0.49 | Feas 26 828.99 842.12 | Inf 25 808.63 824.19 | Div 0.44 0.40 | Feas 0.19 1.00 | Pen 1.52 0.10
It   2000   2002 | T(s) 0.64 | Feas 60 828.99 830.92 | Inf 27 810.30 824.79 | Div 0.25 0.38 | Feas 0.06 1.00 | Pen 1.55 0.10
It   2500   2502 | T(s) 0.78 | Feas 56 828.99 830.15 | Inf 58 812.00 817.90 | Div 0.24 0.26 | Feas 0.21 1.00 | Pen 1.58 0.10
It   3000   3002 | T(s) 0.93 | Feas 35 828.99 832.76 | Inf 40 812.00 819.51 | Div 0.34 0.31 | Feas 0.16 1.00 | Pen 1.58 0.10
It   3500   3502 | T(s) 1.08 | Feas 39 828.99 832.38 | Inf 26 798.97 817.97 | Div 0.32 0.41 | Feas 0.26 1.00 | Pen 1.34 0.10
It   4000   4002 | T(s) 1.23 | Feas 47 828.99 832.17 | Inf 29 815.51 824.15 | Div 0.30 0.38 | Feas 0.17 1.00 | Pen 1.64 0.10
It   4500   4502 | T(s) 1.38 | Feas 51 828.99 831.47 | Inf 64 817.18 820.40 | Div 0.28 0.25 | Feas 0.21 1.00 | Pen 1.68 0.10
It   5000   5002 | T(s) 1.53 | Feas 65 828.99 830.84 | Inf 52 818.22 821.97 | Div 0.26 0.26 | Feas 0.07 1.00 | Pen 1.71 0.10
It   5500   5502 | T(s) 1.68 | Feas 38 828.99 831.10 | Inf 30 820.36 828.06 | Div 0.29 0.39 | Feas 0.23 1.00 | Pen 1.78 0.10
It   6000   6002 | T(s) 1.82 | Feas 51 828.99 830.47 | Inf 37 809.95 822.79 | Div 0.26 0.37 | Feas 0.21 1.00 | Pen 1.54 0.10
It   6500   6502 | T(s) 1.97 | Feas 57 828.99 830.16 | Inf 27 797.22 817.86 | Div 0.24 0.41 | Feas 0.28 1.00 | Pen 1.31 0.10
It   7000   7002 | T(s) 2.12 | Feas 60 828.99 830.48 | Inf 29 823.74 829.42 | Div 0.26 0.38 | Feas 0.14 1.00 | Pen 1.89 0.10
It   7500   7502 | T(s) 2.27 | Feas 31 828.99 836.40 | Inf 49 813.38 820.02 | Div 0.39 0.29 | Feas 0.25 1.00 | Pen 1.61 0.10
It   8000   8002 | T(s) 2.41 | Feas 27 828.99 838.81 | Inf 43 813.38 820.33 | Div 0.43 0.30 | Feas 0.24 1.00 | Pen 1.61 0.10
It   8500   8502 | T(s) 2.56 | Feas 35 828.99 832.92 | Inf 34 801.64 817.00 | Div 0.33 0.36 | Feas 0.30 1.00 | Pen 1.39 0.10
It   9000   9002 | T(s) 2.71 | Feas 38 828.99 831.90 | Inf 26 818.00 828.55 | Div 0.31 0.42 | Feas 0.23 1.00 | Pen 1.70 0.10
It   9500   9502 | T(s) 2.86 | Feas 41 828.99 832.00 | Inf 53 806.32 815.33 | Div 0.31 0.27 | Feas 0.18 1.00 | Pen 1.48 0.10
It  10000  10002 | T(s) 3.01 | Feas 39 828.99 831.94 | Inf 52 820.13 824.44 | Div 0.29 0.27 | Feas 0.13 1.00 | Pen 1.77 0.10
It  10500  10502 | T(s) 3.16 | Feas 57 828.99 831.86 | Inf 41 821.23 825.95 | Div 0.29 0.31 | Feas 0.10 1.00 | Pen 1.81 0.10
It  11000  11002 | T(s) 3.31 | Feas 34 828.99 833.05 | Inf 58 809.60 814.40 | Div 0.33 0.24 | Feas 0.21 1.00 | Pen 1.54 0.10
It  11500  11502 | T(s) 3.46 | Feas 59 828.99 829.86 | Inf 55 811.29 822.33 | Div 0.23 0.31 | Feas 0.31 1.00 | Pen 1.57 0.10
It  12000  12002 | T(s) 3.61 | Feas 38 828.99 832.58 | Inf 35 813.02 821.61 | Div 0.33 0.34 | Feas 0.25 1.00 | Pen 1.60 0.10
It  12500  12502 | T(s) 3.76 | Feas 50 828.99 830.10 | Inf 58 814.78 819.73 | Div 0.24 0.27 | Feas 0.24 1.00 | Pen 1.63 0.10
It  13000  13002 | T(s) 3.91 | Feas 48 828.99 831.62 | Inf 44 816.57 821.82 | Div 0.30 0.29 | Feas 0.14 1.00 | Pen 1.66 0.10
It  13500  13502 | T(s) 4.05 | Feas 60 828.99 830.33 | Inf 28 817.78 826.47 | Div 0.24 0.40 | Feas 0.22 1.00 | Pen 1.70 0.10
It  14000  14002 | T(s) 4.20 | Feas 36 828.99 832.75 | Inf 48 818.84 823.14 | Div 0.33 0.28 | Feas 0.25 1.00 | Pen 1.73 0.10
It  14500  14502 | T(s) 4.35 | Feas 56 828.99 830.94 | Inf 32 822.91 828.34 | Div 0.28 0.38 | Feas 0.28 1.00 | Pen 1.77 0.10
It  15000  15002 | T(s) 4.49 | Feas 64 828.99 831.14 | Inf 50 807.61 812.95 | Div 0.26 0.24 | Feas 0.23 1.00 | Pen 1.50 0.10
It  15500  15502 | T(s) 4.64 | Feas 59 828.99 830.31 | Inf 39 809.26 821.18 | Div 0.24 0.34 | Feas 0.29 1.00 | Pen 1.53 0.10
It  16000  16002 | T(s) 4.78 | Feas 57 828.99 830.11 | Inf 64 809.26 815.05 | Div 0.24 0.24 | Feas 0.22 1.00 | Pen 1.53 0.10
It  16500  16502 | T(s) 4.93 | Feas 60 828.99 830.31 | Inf 47 810.94 819.19 | Div 0.25 0.30 | Feas 0.21 1.00 | Pen 1.56 0.10
It  17000  17002 | T(s) 5.07 | Feas 29 828.99 835.26 | Inf 32 812.66 822.64 | Div 0.39 0.36 | Feas 0.22 1.00 | Pen 1.59 0.10
It  17500  17502 | T(s) 5.22 | Feas 34 828.99 834.01 | Inf 34 812.66 822.49 | Div 0.34 0.36 | Feas 0.18 1.00 | Pen 1.59 0.10
It  18000  18002 | T(s) 5.37 | Feas 39 828.99 831.80 | Inf 61 812.66 817.85 | Div 0.30 0.25 | Feas 0.18 1.00 | Pen 1.59 0.10
It  18500  18502 | T(s) 5.51 | Feas 47 828.99 832.19 | Inf 49 816.20 820.94 | Div 0.28 0.26 | Feas 0.10 1.00 | Pen 1.66 0.10
It  19000  19002 | T(s) 5.66 | Feas 30 828.99 835.02 | Inf 57 804.08 813.40 | Div 0.38 0.27 | Feas 0.29 1.00 | Pen 1.44 0.10
It  19500  19502 | T(s) 5.81 | Feas 41 828.99 832.07 | Inf 54 819.69 823.81 | Div 0.32 0.24 | Feas 0.08 1.00 | Pen 1.76 0.10
----- GENETIC ALGORITHM FINISHED AFTER 20000 ITERATIONS. TIME SPENT: 5.95556
----- WRITING BEST SOLUTION IN : baseline_results/cvrp_hgs/Vrp-Set-A-n39/Vrp-Set-A-n39-hgs/0.hgs1.tour
